100 8
576 140
901 726
778 256
896 590
474 823
186 480
528 973
401 714
330 915
892 581
569 495
688 724
603 624
791 660
473 204
367 836
496 742
609 777
569 225
481 809
155 415
293 371
472 319
670 313
313 330
626 227
335 532
601 773
557 710
549 804
160 379
469 160
374 601
620 210
574 880
495 892
484 157
588 707
250 608
480 195
607 701
443 135
771 289
649 284
355 167
503 139
682 338
170 351
476 335
407 763
560 607
462 209
391 142
218 37
528 818
314 359
486 92
753 654
517 333
302 122
713 259
772 655
571 723
432 699
827 685
591 299
323 722
614 771
758 246
337 191
496 775
180 66
274 91
329 667
245 313
312 158
220 36
189 326
468 866
605 711
375 616
832 280
254 376
328 668
221 361
485 115
798 825
563 395
722 636
786 600
428 797
669 204
428 217
465 914
239 41
682 432
587 217
672 764
592 417
716 282
